StudentsNr = 10;
InstructorsNr = 51;
DaysNr = 1;
SlotsPerDay = 15;
AvailabilitySlotsLenght = 3;
RoomNr = 1;
ProgrammNr = 1;
DegreeNr = 1;
RolesNr = 1;
CoursesNr = 10;
InstructorsProgramm = [{1}, {1}, {1}, {1}, {1}, {1}, {1}, {1}, {1}, {1}, {1}, {1}, {1}, {1}, {1}, {1}, {1}, {1}, {1}, {1}, {1}, {1}, {1}, {1}, {1}, {1}, {1}, {1}, {1}, {1}, {1}, {1}, {1}, {1}, {1}, {1}, {1}, {1}, {1}, {1}, {1}, {1}, {1}, {1}, {1}, {1}, {1}, {1}, {1}, {1}, {1}];
InstructorRolesPerProgramm = [|{1, 2, 4, 5, 8, 9, 10, 12, 17, 19, 21, 24, 27, 28, 36, 37, 38, 39, 42, 44, 46, 47, 48, 50, 51}|];
InstructorsAvailability = [|0, 0, 0, 1, 1, |0, 0, 1, 1, 1, |0, 0, 1, 1, 1, |0, 1, 1, 1, 1, |0, 1, 1, 1, 1, |0, 0, 0, 0, 0, |1, 1, 0, 0, 1, |1, 1, 1, 1, 1, |0, 1, 1, 1, 1, |1, 1, 1, 1, 1, |0, 1, 1, 1, 1, |1, 1, 1, 1, 1, |1, 1, 1, 1, 1, |1, 1, 1, 0, 1, |0, 0, 0, 1, 1, |0, 1, 1, 1, 1, |1, 1, 1, 1, 1, |1, 1, 1, 1, 0, |0, 0, 1, 1, 1, |1, 1, 1, 1, 1, |0, 1, 1, 1, 1, |0, 0, 0, 0, 0, |0, 0, 1, 1, 1, |0, 0, 0, 1, 1, |1, 0, 0, 1, 1, |1, 0, 0, 0, 0, |1, 0, 0, 0, 1, |0, 0, 0, 1, 1, |1, 1, 1, 1, 1, |0, 1, 1, 1, 1, |1, 1, 1, 1, 1, |1, 1, 1, 1, 1, |1, 0, 0, 1, 1, |1, 1, 1, 1, 1, |1, 0, 0, 0, 0, |0, 1, 1, 1, 0, |1, 1, 1, 1, 1, |1, 1, 1, 1, 1, |1, 0, 1, 1, 1, |0, 1, 1, 1, 1, |1, 1, 1, 1, 1, |1, 1, 1, 1, 1, |0, 1, 0, 1, 0, |0, 1, 1, 1, 1, |1, 1, 1, 1, 1, |1, 1, 0, 1, 1, |0, 1, 1, 1, 1, |0, 1, 1, 1, 1, |1, 1, 1, 1, 1, |1, 0, 0, 0, 1, |0, 0, 1, 1, 1|];
StudentsProgramm = [1, 1, 1, 1, 1, 1, 1, 1, 1, 1];
StudentsDegree = [1, 1, 1, 1, 1, 1, 1, 1, 1, 1];
StudentsSupervisorId = [36, 4, 2, 21, 43, 39, 7, 16, 46, 1];
StudentsCourseIds = [{2, 3, 4, 5, 6, 7, 9}, {1, 2, 3, 6, 7, 8, 9}, {1, 2, 5, 6, 8, 9, 10}, {2, 3, 4, 6, 7, 9, 10}, {3, 4, 5, 6, 7, 9, 10}, {1, 2, 3, 4, 5, 7, 9}, {1, 3, 4, 5, 7, 9, 10}, {3, 4, 5, 7, 8, 9, 10}, {1, 3, 4, 5, 8, 9, 10}, {1, 2, 6, 7, 8, 9, 10}];
StudentsAvailability = [|0, 1, 1, 0, 1, |1, 1, 1, 1, 1, |1, 1, 1, 1, 1, |1, 1, 1, 1, 1, |0, 1, 1, 1, 0, |1, 1, 1, 1, 1, |0, 0, 1, 1, 0, |1, 1, 1, 0, 1, |1, 1, 1, 0, 0, |1, 1, 1, 1, 1|];
TheoryticalMinCard = [0, 0, 0, 0, 0, 0, 1, 0, 0, 0];
CoursesInstructorIds = [{2, 4, 8, 9, 11, 12, 14, 15, 17, 19, 20, 22, 25, 28, 29, 31, 33, 35, 36, 37, 38, 39, 42, 43, 44, 47, 48, 49, 50}, {1, 3, 4, 5, 8, 9, 10, 12, 15, 16, 17, 18, 20, 21, 24, 27, 28, 30, 32, 35, 37, 40, 41, 42, 43, 44, 45, 50}, {9, 12, 14, 15, 16, 17, 24, 30, 32, 33, 34, 37, 38, 42, 43, 44, 48, 51}, {15, 18, 27, 30, 31, 37, 38, 40, 43, 49, 51}, {13, 16, 19, 20, 34, 35, 40}, {1, 2, 4, 5, 7, 8, 12, 13, 14, 15, 18, 19, 20, 22, 23, 24, 25, 29, 31, 32, 33, 35, 37, 38, 39, 40, 41, 46, 47, 50, 51}, {1, 3, 6, 10, 13, 15, 16, 21, 22, 23, 24, 25, 29, 31, 33, 34, 36, 39, 41, 42, 46}, {2, 5, 8, 13, 15, 18, 19, 20, 22, 25, 26, 29, 36, 40, 43, 46, 47, 48, 49, 51}, {1, 2, 15, 16, 19, 20, 21, 22, 30, 35, 38, 44, 50, 51}, {2, 6, 10, 11, 14, 15, 19, 20, 21, 22, 24, 26, 29, 30, 31, 33, 34, 38, 39, 40, 42, 46, 47, 49, 50, 51}];
RolesDemands = [13];
RolesContinuity = [];
ExamLen = [1, 1, 1, 1, 1, 1, 1, 1, 1, 1];
LunchTsMinLen = 0;
LunchStarts = [6..11];
SupervisorAvailable = 0;
OptimalLunchLenght = [2, 1];
OptimalStartTs = [2, 0];
OptimalFinishTs = [0, 15];
MinimizeRooms = 0;
RolesSoftContinuity = [|1|4|];
SameDegreeInRoom = 0;
Mergeability = 0;
